(set-info :smt-lib-version 2.6)
(set-logic UFLIA)
(set-info :source |Benchmarks from the paper: "Extending Sledgehammer with SMT Solvers" by Jasmin Blanchette, Sascha Bohme, and Lawrence C. Paulson, CADE 2011.  Translated to SMT2 by Andrew Reynolds and Morgan Deters.|)
(set-info :category "industrial")
(set-info :status unknown)
(declare-sort S1 0)
(declare-sort S2 0)
(declare-sort S3 0)
(declare-sort S4 0)
(declare-sort S5 0)
(declare-sort S6 0)
(declare-sort S7 0)
(declare-sort S8 0)
(declare-sort S9 0)
(declare-sort S10 0)
(declare-sort S11 0)
(declare-sort S12 0)
(declare-sort S13 0)
(declare-sort S14 0)
(declare-sort S15 0)
(declare-sort S16 0)
(declare-sort S17 0)
(declare-sort S18 0)
(declare-sort S19 0)
(declare-sort S20 0)
(declare-sort S21 0)
(declare-sort S22 0)
(declare-sort S23 0)
(declare-sort S24 0)
(declare-sort S25 0)
(declare-sort S26 0)
(declare-sort S27 0)
(declare-sort S28 0)
(declare-sort S29 0)
(declare-sort S30 0)
(declare-sort S31 0)
(declare-sort S32 0)
(declare-sort S33 0)
(declare-sort S34 0)
(declare-fun f1 () S1)
(declare-fun f2 () S1)
(declare-fun f3 (S3 S2) S1)
(declare-fun f4 (S4 S2) S3)
(declare-fun f5 () S4)
(declare-fun f6 (S6 S5) S1)
(declare-fun f7 (S7 S5) S6)
(declare-fun f8 () S7)
(declare-fun f9 () S4)
(declare-fun f10 () S7)
(declare-fun f11 (S8 S9) S7)
(declare-fun f12 () S8)
(declare-fun f13 () S9)
(declare-fun f14 (S10 S3) S3)
(declare-fun f15 (S11 S2) S10)
(declare-fun f16 () S11)
(declare-fun f17 (S12 S3) S1)
(declare-fun f18 (S13 S2) S12)
(declare-fun f19 () S13)
(declare-fun f20 () S11)
(declare-fun f21 () S11)
(declare-fun f22 () S11)
(declare-fun f23 (S14 S5) S7)
(declare-fun f24 () S14)
(declare-fun f25 (S15 S7) S14)
(declare-fun f26 () S15)
(declare-fun f27 () S8)
(declare-fun f28 (S16 S6) S7)
(declare-fun f29 (S17 S7) S16)
(declare-fun f30 () S17)
(declare-fun f31 (S18 S7) S7)
(declare-fun f32 (S19 S1) S18)
(declare-fun f33 () S19)
(declare-fun f34 () S3)
(declare-fun f35 (S20 S3) S12)
(declare-fun f36 () S20)
(declare-fun f37 () S3)
(declare-fun f38 () S11)
(declare-fun f39 (S21 S7) S2)
(declare-fun f40 (S22 S9) S21)
(declare-fun f41 (S23 S7) S22)
(declare-fun f42 () S23)
(declare-fun f43 () S3)
(declare-fun f44 () S1)
(declare-fun f45 (S24 S9) S2)
(declare-fun f46 () S24)
(declare-fun f47 (S26 S2) S27)
(declare-fun f48 (S28 S25) S26)
(declare-fun f49 () S28)
(declare-fun f50 (S29 Int) S27)
(declare-fun f51 () S29)
(declare-fun f52 () S10)
(declare-fun f53 (S30 S3) S2)
(declare-fun f54 () S30)
(declare-fun f55 () S1)
(declare-fun f56 () S9)
(declare-fun f57 (S31 S9) S9)
(declare-fun f58 (S32 S6) S31)
(declare-fun f59 () S32)
(declare-fun f60 (S33 S9) S31)
(declare-fun f61 () S33)
(declare-fun f62 () S26)
(declare-fun f63 (S34 S27) Int)
(declare-fun f64 () S34)
(assert (not (= f1 f2)))
(assert (forall ((?v0 S2) (?v1 S2)) (= (= (f3 (f4 f5 ?v0) ?v1) f1) (= ?v0 ?v1))))
(assert (forall ((?v0 S5) (?v1 S5)) (= (= (f6 (f7 f8 ?v0) ?v1) f1) (= ?v0 ?v1))))
(assert (forall ((?v0 S2) (?v1 S2)) (= (= (f3 (f4 f9 ?v0) ?v1) f1) (= ?v1 ?v0))))
(assert (forall ((?v0 S5) (?v1 S5)) (= (= (f6 (f7 f10 ?v0) ?v1) f1) (forall ((?v2 S5)) (=> (= (f6 (f7 (f11 f12 f13) ?v1) ?v2) f1) (= ?v0 ?v2))))))
(assert (forall ((?v0 S2) (?v1 S3) (?v2 S2)) (= (= (f3 (f14 (f15 f16 ?v0) ?v1) ?v2) f1) (or (= ?v2 ?v0) (= (f17 (f18 f19 ?v2) ?v1) f1)))))
(assert (forall ((?v0 S2) (?v1 S3) (?v2 S2)) (= (= (f3 (f14 (f15 f20 ?v0) ?v1) ?v2) f1) (and (= ?v0 ?v2) (= (f3 ?v1 ?v2) f1)))))
(assert (forall ((?v0 S2) (?v1 S3) (?v2 S2)) (= (= (f3 (f14 (f15 f21 ?v0) ?v1) ?v2) f1) (and (= ?v2 ?v0) (= (f3 ?v1 ?v2) f1)))))
(assert (forall ((?v0 S2) (?v1 S3) (?v2 S2)) (= (= (f3 (f14 (f15 f22 ?v0) ?v1) ?v2) f1) (=> (not (= ?v2 ?v0)) (= (f3 ?v1 ?v2) f1)))))
(assert (forall ((?v0 S5) (?v1 S5) (?v2 S5)) (= (= (f6 (f7 (f23 f24 ?v0) ?v1) ?v2) f1) (= ?v2 ?v0))))
(assert (forall ((?v0 S7) (?v1 S5) (?v2 S5)) (= (f7 (f23 (f25 f26 ?v0) ?v1) ?v2) (f7 ?v0 ?v1))))
(assert (forall ((?v0 S9) (?v1 S5) (?v2 S5)) (= (= (f6 (f7 (f11 f27 ?v0) ?v1) ?v2) f1) (forall ((?v3 S5)) (=> (= (f6 (f7 (f11 f12 ?v0) ?v2) ?v3) f1) (= ?v1 ?v3))))))
(assert (forall ((?v0 S7) (?v1 S6) (?v2 S5) (?v3 S5)) (= (= (f6 (f7 (f28 (f29 f30 ?v0) ?v1) ?v2) ?v3) f1) (and (= (f6 (f7 ?v0 ?v2) ?v3) f1) (not (= (f6 ?v1 ?v3) f1))))))
(assert (forall ((?v0 S1) (?v1 S7) (?v2 S5) (?v3 S5)) (= (= (f6 (f7 (f31 (f32 f33 ?v0) ?v1) ?v2) ?v3) f1) (and (= (f6 (f7 ?v1 ?v2) ?v3) f1) (= ?v0 f1)))))
(assert (forall ((?v0 S2)) (= (= (f3 f34 ?v0) f1) false)))
(assert (not (= (f17 (f35 f36 f37) (f14 (f15 f38 (f39 (f40 (f41 f42 f8) f13) (f11 f12 f13))) f43)) f1)))
(assert (= f44 f1))
(assert (= (f17 (f35 f36 f37) (f14 (f15 f38 (f39 (f40 (f41 f42 f10) f13) f8)) f43)) f1))
(assert (forall ((?v0 S3)) (= (f17 (f35 f36 ?v0) f43) f1)))
(assert (forall ((?v0 S7) (?v1 S9) (?v2 S7) (?v3 S7) (?v4 S9) (?v5 S7)) (= (= (f39 (f40 (f41 f42 ?v0) ?v1) ?v2) (f39 (f40 (f41 f42 ?v3) ?v4) ?v5)) (and (= ?v0 ?v3) (and (= ?v1 ?v4) (= ?v2 ?v5))))))
(assert (forall ((?v0 S3) (?v1 S3) (?v2 S3)) (let ((?v_0 (f35 f36 ?v2))) (=> (= (f17 (f35 f36 ?v0) ?v1) f1) (=> (= (f17 ?v_0 ?v0) f1) (= (f17 ?v_0 ?v1) f1))))))
(assert (forall ((?v0 S3) (?v1 S2) (?v2 S3)) (let ((?v_0 (f35 f36 ?v0)) (?v_1 (f15 f38 ?v1))) (=> (= (f17 ?v_0 (f14 ?v_1 f43)) f1) (=> (= (f17 ?v_0 ?v2) f1) (= (f17 ?v_0 (f14 ?v_1 ?v2)) f1))))))
(assert (forall ((?v0 S3) (?v1 S2) (?v2 S3)) (let ((?v_0 (f35 f36 ?v0)) (?v_1 (f15 f38 ?v1))) (=> (= (f17 ?v_0 (f14 ?v_1 ?v2)) f1) (and (= (f17 ?v_0 (f14 ?v_1 f43)) f1) (= (f17 ?v_0 ?v2) f1))))))
(assert (forall ((?v0 S1) (?v1 S3) (?v2 S7) (?v3 S9) (?v4 S7)) (let ((?v_0 (f35 f36 ?v1))) (=> (=> (= ?v0 f1) (= (f17 ?v_0 (f14 (f15 f38 (f39 (f40 (f41 f42 ?v2) ?v3) ?v4)) f43)) f1)) (= (f17 ?v_0 (f14 (f15 f38 (f39 (f40 (f41 f42 (f31 (f32 f33 ?v0) ?v2)) ?v3) ?v4)) f43)) f1)))))
(assert (forall ((?v0 S3) (?v1 S9)) (let ((?v_0 (f35 f36 ?v0))) (=> (= (f17 ?v_0 (f14 (f15 f38 (f45 f46 ?v1)) f43)) f1) (= (f17 ?v_0 (f14 (f15 f38 (f39 (f40 (f41 f42 (f11 f27 ?v1)) ?v1) f8)) f43)) f1)))))
(assert (forall ((?v0 S7) (?v1 S3) (?v2 S9) (?v3 S7)) (=> (forall ((?v4 S5) (?v5 S5)) (=> (= (f6 (f7 ?v0 ?v4) ?v5) f1) (= (f17 (f35 f36 ?v1) (f14 (f15 f38 (f39 (f40 (f41 f42 (f23 f24 ?v5)) ?v2) (f23 (f25 f26 ?v3) ?v4))) f43)) f1))) (= (f17 (f35 f36 ?v1) (f14 (f15 f38 (f39 (f40 (f41 f42 ?v0) ?v2) ?v3)) f43)) f1))))
(assert (forall ((?v0 S3) (?v1 S7) (?v2 S9) (?v3 S7) (?v4 S7)) (let ((?v_0 (f35 f36 ?v0)) (?v_1 (f40 (f41 f42 ?v1) ?v2))) (=> (= (f17 ?v_0 (f14 (f15 f38 (f39 ?v_1 ?v3)) f43)) f1) (=> (forall ((?v5 S5) (?v6 S5)) (=> (= (f6 (f7 ?v3 ?v5) ?v6) f1) (= (f6 (f7 ?v4 ?v5) ?v6) f1))) (= (f17 ?v_0 (f14 (f15 f38 (f39 ?v_1 ?v4)) f43)) f1))))))
(assert (forall ((?v0 S3) (?v1 S7) (?v2 S9) (?v3 S7) (?v4 S7)) (let ((?v_0 (f35 f36 ?v0))) (=> (= (f17 ?v_0 (f14 (f15 f38 (f39 (f40 (f41 f42 ?v1) ?v2) ?v3)) f43)) f1) (=> (forall ((?v5 S5) (?v6 S5)) (=> (= (f6 (f7 ?v4 ?v5) ?v6) f1) (= (f6 (f7 ?v1 ?v5) ?v6) f1))) (= (f17 ?v_0 (f14 (f15 f38 (f39 (f40 (f41 f42 ?v4) ?v2) ?v3)) f43)) f1))))))
(assert (forall ((?v0 S9)) (= (f45 f46 ?v0) (f39 (f40 (f41 f42 f8) ?v0) (f11 f12 ?v0)))))
(assert (= (= f44 f1) (exists ((?v0 S5) (?v1 S5)) (not (= ?v0 ?v1)))))
(assert (=> (= f44 f1) (forall ((?v0 S5)) (=> (forall ((?v1 S5)) (= ?v1 ?v0)) false))))
(assert (forall ((?v0 S2) (?v1 S2) (?v2 S3)) (let ((?v_0 (f18 f19 ?v0))) (=> (= (f17 ?v_0 (f14 (f15 f38 ?v1) ?v2)) f1) (=> (=> (= ?v0 ?v1) false) (=> (=> (= (f17 ?v_0 ?v2) f1) false) false))))))
(assert (forall ((?v0 S2) (?v1 S3) (?v2 S2)) (let ((?v_0 (f18 f19 ?v0))) (=> (=> (not (= (f17 ?v_0 ?v1) f1)) (= ?v0 ?v2)) (= (f17 ?v_0 (f14 (f15 f38 ?v2) ?v1)) f1)))))
(assert (forall ((?v0 S3) (?v1 S7) (?v2 S9) (?v3 S7) (?v4 S7) (?v5 S7)) (let ((?v_0 (f35 f36 ?v0))) (=> (= (f17 ?v_0 (f14 (f15 f38 (f39 (f40 (f41 f42 ?v1) ?v2) ?v3)) f43)) f1) (=> (forall ((?v6 S5) (?v7 S5)) (=> (= (f6 (f7 ?v4 ?v6) ?v7) f1) (forall ((?v8 S5)) (=> (forall ((?v9 S5)) (=> (= (f6 (f7 ?v1 ?v9) ?v7) f1) (= (f6 (f7 ?v3 ?v9) ?v8) f1))) (= (f6 (f7 ?v5 ?v6) ?v8) f1))))) (= (f17 ?v_0 (f14 (f15 f38 (f39 (f40 (f41 f42 ?v4) ?v2) ?v5)) f43)) f1))))))
(assert (forall ((?v0 S2)) (=> (= (f17 (f18 f19 ?v0) f43) f1) false)))
(assert (forall ((?v0 S25) (?v1 S7) (?v2 S9) (?v3 S7)) (= (f47 (f48 f49 ?v0) (f39 (f40 (f41 f42 ?v1) ?v2) ?v3)) (f50 f51 0))))
(assert (forall ((?v0 S3) (?v1 S2)) (=> (= ?v0 f43) (not (= (f17 (f18 f19 ?v1) ?v0) f1)))))
(assert (forall ((?v0 S3)) (= (= (f14 f52 ?v0) f43) (forall ((?v1 S2)) (not (= (f3 ?v0 ?v1) f1))))))
(assert (forall ((?v0 S2)) (= (= (f17 (f18 f19 ?v0) f43) f1) false)))
(assert (forall ((?v0 S3)) (= (= f43 (f14 f52 ?v0)) (forall ((?v1 S2)) (not (= (f3 ?v0 ?v1) f1))))))
(assert (forall ((?v0 S3)) (= (forall ((?v1 S2)) (=> (= (f17 (f18 f19 ?v1) f43) f1) (= (f3 ?v0 ?v1) f1))) true)))
(assert (forall ((?v0 S3)) (= (exists ((?v1 S2)) (and (= (f17 (f18 f19 ?v1) f43) f1) (= (f3 ?v0 ?v1) f1))) false)))
(assert (forall ((?v0 S3)) (= (exists ((?v1 S2)) (= (f17 (f18 f19 ?v1) ?v0) f1)) (not (= ?v0 f43)))))
(assert (forall ((?v0 S3)) (= (forall ((?v1 S2)) (not (= (f17 (f18 f19 ?v1) ?v0) f1))) (= ?v0 f43))))
(assert (= f43 (f14 f52 f34)))
(assert (forall ((?v0 S2) (?v1 S3)) (=> (= (f17 (f18 f19 ?v0) ?v1) f1) (= (f14 (f15 f38 ?v0) ?v1) ?v1))))
(assert (forall ((?v0 S2) (?v1 S3) (?v2 S2)) (let ((?v_0 (f18 f19 ?v0))) (=> (= (f17 ?v_0 ?v1) f1) (= (f17 ?v_0 (f14 (f15 f38 ?v2) ?v1)) f1)))))
(assert (forall ((?v0 S2) (?v1 S3) (?v2 S3)) (let ((?v_0 (f18 f19 ?v0)) (?v_1 (f15 f38 ?v0))) (=> (not (= (f17 ?v_0 ?v1) f1)) (=> (not (= (f17 ?v_0 ?v2) f1)) (= (= (f14 ?v_1 ?v1) (f14 ?v_1 ?v2)) (= ?v1 ?v2)))))))
(assert (forall ((?v0 S2) (?v1 S3) (?v2 S2)) (= (= (f3 (f14 (f15 f38 ?v0) ?v1) ?v2) f1) (or (= ?v0 ?v2) (= (f3 ?v1 ?v2) f1)))))
(assert (forall ((?v0 S2) (?v1 S2) (?v2 S3)) (let ((?v_0 (f18 f19 ?v0))) (= (= (f17 ?v_0 (f14 (f15 f38 ?v1) ?v2)) f1) (or (= ?v0 ?v1) (= (f17 ?v_0 ?v2) f1))))))
(assert (forall ((?v0 S2) (?v1 S2) (?v2 S3)) (let ((?v_1 (f15 f38 ?v0)) (?v_0 (f15 f38 ?v1))) (= (f14 ?v_1 (f14 ?v_0 ?v2)) (f14 ?v_0 (f14 ?v_1 ?v2))))))
(assert (forall ((?v0 S2) (?v1 S3)) (let ((?v_0 (f15 f38 ?v0))) (let ((?v_1 (f14 ?v_0 ?v1))) (= (f14 ?v_0 ?v_1) ?v_1)))))
(assert (forall ((?v0 S2) (?v1 S3)) (= (f14 (f15 f38 ?v0) (f14 f52 ?v1)) (f14 f52 (f14 (f15 f22 ?v0) ?v1)))))
(assert (forall ((?v0 S2) (?v1 S3)) (= (f14 (f15 f38 ?v0) ?v1) (f14 f52 (f14 (f15 f16 ?v0) ?v1)))))
(assert (forall ((?v0 S2) (?v1 S3)) (= (f17 (f18 f19 ?v0) (f14 (f15 f38 ?v0) ?v1)) f1)))
(assert (forall ((?v0 S2) (?v1 S3)) (= (f14 (f15 f38 ?v0) ?v1) (f14 f52 (f14 (f15 f16 ?v0) ?v1)))))
(assert (forall ((?v0 S2) (?v1 S2)) (=> (= (f14 (f15 f38 ?v0) f43) (f14 (f15 f38 ?v1) f43)) (= ?v0 ?v1))))
(assert (forall ((?v0 S2) (?v1 S2)) (=> (= (f17 (f18 f19 ?v0) (f14 (f15 f38 ?v1) f43)) f1) (=> (=> (= ?v0 ?v1) false) false))))
(assert (forall ((?v0 S2) (?v1 S2) (?v2 S2) (?v3 S2)) (= (= (f14 (f15 f38 ?v0) (f14 (f15 f38 ?v1) f43)) (f14 (f15 f38 ?v2) (f14 (f15 f38 ?v3) f43))) (or (and (= ?v0 ?v2) (= ?v1 ?v3)) (and (= ?v0 ?v3) (= ?v1 ?v2))))))
(assert (forall ((?v0 S2) (?v1 S2)) (= (= (f17 (f18 f19 ?v0) (f14 (f15 f38 ?v1) f43)) f1) (= ?v0 ?v1))))
(assert (forall ((?v0 S2) (?v1 S3)) (not (= (f14 (f15 f38 ?v0) ?v1) f43))))
(assert (forall ((?v0 S2) (?v1 S3)) (not (= f43 (f14 (f15 f38 ?v0) ?v1)))))
(assert (forall ((?v0 S2) (?v1 S3)) (= (f14 f52 (f14 (f15 f21 ?v0) ?v1)) (ite (= (f3 ?v1 ?v0) f1) (f14 (f15 f38 ?v0) f43) f43))))
(assert (forall ((?v0 S2) (?v1 S3)) (= (f14 f52 (f14 (f15 f20 ?v0) ?v1)) (ite (= (f3 ?v1 ?v0) f1) (f14 (f15 f38 ?v0) f43) f43))))
(assert (forall ((?v0 S2)) (= (f14 f52 (f4 f9 ?v0)) (f14 (f15 f38 ?v0) f43))))
(assert (forall ((?v0 S2)) (= (f14 f52 (f4 f5 ?v0)) (f14 (f15 f38 ?v0) f43))))
(assert (forall ((?v0 S2)) (= (f53 f54 (f14 (f15 f38 ?v0) f43)) ?v0)))
(assert (forall ((?v0 S2)) (= (= (f3 f43 ?v0) f1) (= f55 f1))))
(assert (forall ((?v0 S2)) (= (= (f3 f43 ?v0) f1) (= f55 f1))))
(assert (forall ((?v0 S3) (?v1 S7)) (= (f17 (f35 f36 ?v0) (f14 (f15 f38 (f39 (f40 (f41 f42 ?v1) f56) ?v1)) f43)) f1)))
(assert (forall ((?v0 S3) (?v1 S7) (?v2 S6) (?v3 S9)) (= (f17 (f35 f36 ?v0) (f14 (f15 f38 (f39 (f40 (f41 f42 (f28 (f29 f30 ?v1) ?v2)) (f57 (f58 f59 ?v2) ?v3)) ?v1)) f43)) f1)))
(assert (forall ((?v0 S3) (?v1 S7) (?v2 S9) (?v3 S7) (?v4 S9) (?v5 S7)) (let ((?v_0 (f35 f36 ?v0)) (?v_1 (f41 f42 ?v1))) (=> (= (f17 ?v_0 (f14 (f15 f38 (f39 (f40 ?v_1 ?v2) ?v3)) f43)) f1) (=> (= (f17 ?v_0 (f14 (f15 f38 (f39 (f40 (f41 f42 ?v3) ?v4) ?v5)) f43)) f1) (= (f17 ?v_0 (f14 (f15 f38 (f39 (f40 ?v_1 (f57 (f60 f61 ?v2) ?v4)) ?v5)) f43)) f1))))))
(assert (forall ((?v0 S7) (?v1 S9) (?v2 S7)) (= (f47 f62 (f39 (f40 (f41 f42 ?v0) ?v1) ?v2)) (f50 f51 0))))
(assert (forall ((?v0 S2)) (=> (forall ((?v1 S7) (?v2 S9) (?v3 S7)) (=> (= ?v0 (f39 (f40 (f41 f42 ?v1) ?v2) ?v3)) false)) false)))
(assert (forall ((?v0 S5)) (= (f6 (f7 (f11 f12 f56) ?v0) ?v0) f1)))
(assert (forall ((?v0 S5) (?v1 S5)) (=> (= (f6 (f7 (f11 f12 f56) ?v0) ?v1) f1) (=> (=> (= ?v1 ?v0) false) false))))
(assert (forall ((?v0 S9) (?v1 S5) (?v2 S5) (?v3 S9) (?v4 S5)) (=> (= (f6 (f7 (f11 f12 ?v0) ?v1) ?v2) f1) (=> (= (f6 (f7 (f11 f12 ?v3) ?v2) ?v4) f1) (= (f6 (f7 (f11 f12 (f57 (f60 f61 ?v0) ?v3)) ?v1) ?v4) f1)))))
(assert (forall ((?v0 S6) (?v1 S5) (?v2 S9)) (=> (not (= (f6 ?v0 ?v1) f1)) (= (f6 (f7 (f11 f12 (f57 (f58 f59 ?v0) ?v2)) ?v1) ?v1) f1))))
(assert (forall ((?v0 S6) (?v1 S5) (?v2 S9) (?v3 S5) (?v4 S5)) (let ((?v_0 (f11 f12 (f57 (f58 f59 ?v0) ?v2)))) (=> (= (f6 ?v0 ?v1) f1) (=> (= (f6 (f7 (f11 f12 ?v2) ?v1) ?v3) f1) (=> (= (f6 (f7 ?v_0 ?v3) ?v4) f1) (= (f6 (f7 ?v_0 ?v1) ?v4) f1)))))))
(assert (forall ((?v0 S27)) (= (f50 f51 (f63 f64 ?v0)) ?v0)))
(assert (forall ((?v0 Int)) (=> (<= 0 ?v0) (= (f63 f64 (f50 f51 ?v0)) ?v0))))
(assert (forall ((?v0 Int)) (=> (< ?v0 0) (= (f63 f64 (f50 f51 ?v0)) 0))))
(check-sat)
(exit)
